benchmarks_CP/INST_36x36/35/inst36x36_35_96.dzn
S=6;
start=[|
-1,	-1,	-1,	-1,	-1,	1,	-1,	-1,	-1,	14,	-1,	-1,	21,	-1,	-1,	-1,	-1,	6,	-1,	17,	-1,	-1,	3,	35,	16,	5,	-1,	-1,	19,	22,	-1,	-1,	-1,	9,	27,	8|
-1,	-1,	-1,	-1,	-1,	3,	25,	-1,	22,	-1,	33,	15,	14,	-1,	7,	-1,	29,	-1,	-1,	-1,	-1,	-1,	-1,	-1,	-1,	30,	24,	-1,	-1,	-1,	36,	-1,	35,	28,	34,	-1|
-1,	14,	-1,	-1,	-1,	-1,	-1,	27,	-1,	-1,	-1,	-1,	1,	15,	-1,	-1,	-1,	-1,	-1,	9,	-1,	-1,	-1,	-1,	-1,	-1,	20,	-1,	23,	-1,	16,	4,	-1,	24,	17,	-1|
35,	26,	30,	31,	-1,	-1,	17,	21,	-1,	-1,	4,	7,	-1,	-1,	-1,	-1,	-1,	-1,	-1,	-1,	-1,	-1,	24,	-1,	-1,	6,	-1,	2,	25,	14,	-1,	-1,	-1,	5,	-1,	29|
11,	-1,	-1,	-1,	-1,	-1,	-1,	-1,	5,	-1,	-1,	-1,	36,	-1,	-1,	4,	-1,	-1,	-1,	-1,	-1,	31,	33,	-1,	27,	-1,	3,	-1,	-1,	-1,	-1,	-1,	30,	-1,	2,	-1|
24,	-1,	21,	-1,	10,	28,	-1,	-1,	-1,	-1,	9,	-1,	2,	-1,	-1,	-1,	-1,	-1,	-1,	-1,	-1,	23,	22,	-1,	34,	-1,	-1,	-1,	35,	4,	1,	-1,	-1,	-1,	32,	6|
1,	-1,	-1,	-1,	-1,	4,	5,	16,	17,	31,	19,	-1,	32,	-1,	-1,	-1,	-1,	27,	-1,	-1,	2,	9,	-1,	3,	-1,	-1,	23,	-1,	-1,	-1,	-1,	-1,	-1,	-1,	-1,	-1|
-1,	-1,	5,	3,	-1,	34,	-1,	14,	-1,	-1,	-1,	-1,	-1,	-1,	-1,	-1,	-1,	-1,	-1,	-1,	18,	-1,	-1,	21,	-1,	-1,	-1,	31,	-1,	-1,	-1,	22,	-1,	-1,	29,	-1|
23,	33,	-1,	-1,	-1,	9,	-1,	15,	-1,	21,	6,	-1,	-1,	-1,	1,	-1,	-1,	-1,	-1,	16,	-1,	22,	4,	-1,	11,	-1,	7,	-1,	30,	25,	-1,	-1,	14,	26,	5,	-1|
-1,	7,	17,	-1,	-1,	-1,	13,	30,	11,	-1,	-1,	33,	-1,	-1,	-1,	-1,	9,	21,	-1,	-1,	-1,	-1,	35,	15,	-1,	1,	-1,	-1,	-1,	3,	-1,	-1,	10,	-1,	-1,	32|
-1,	-1,	-1,	6,	-1,	-1,	22,	34,	-1,	9,	29,	-1,	-1,	-1,	-1,	20,	36,	-1,	-1,	-1,	14,	19,	-1,	32,	-1,	-1,	-1,	18,	-1,	-1,	-1,	-1,	-1,	-1,	21,	33|
-1,	-1,	22,	21,	25,	8,	36,	12,	-1,	-1,	1,	4,	-1,	-1,	-1,	-1,	-1,	-1,	30,	31,	-1,	-1,	5,	-1,	-1,	10,	-1,	-1,	-1,	-1,	-1,	16,	-1,	23,	-1,	-1|
18,	-1,	4,	8,	1,	-1,	7,	-1,	-1,	-1,	14,	29,	-1,	-1,	-1,	-1,	-1,	-1,	-1,	3,	31,	-1,	-1,	16,	-1,	-1,	-1,	-1,	-1,	-1,	-1,	-1,	21,	20,	-1,	-1|
-1,	5,	31,	7,	-1,	-1,	23,	-1,	21,	-1,	-1,	-1,	12,	-1,	-1,	-1,	-1,	34,	-1,	-1,	19,	-1,	-1,	-1,	10,	3,	11,	-1,	-1,	-1,	-1,	-1,	16,	-1,	-1,	-1|
-1,	-1,	-1,	-1,	-1,	-1,	16,	-1,	19,	5,	-1,	32,	-1,	26,	-1,	29,	-1,	11,	23,	-1,	-1,	-1,	9,	-1,	-1,	8,	30,	22,	-1,	-1,	-1,	-1,	-1,	-1,	25,	-1|
14,	16,	-1,	10,	-1,	32,	-1,	-1,	34,	-1,	-1,	-1,	-1,	19,	-1,	-1,	18,	7,	-1,	-1,	4,	-1,	8,	-1,	-1,	-1,	-1,	25,	-1,	-1,	9,	-1,	-1,	22,	26,	-1|
-1,	-1,	13,	-1,	-1,	-1,	-1,	-1,	-1,	-1,	-1,	-1,	-1,	6,	-1,	3,	5,	-1,	17,	-1,	27,	28,	-1,	-1,	-1,	-1,	36,	-1,	-1,	-1,	-1,	-1,	-1,	31,	7,	-1|
-1,	-1,	-1,	-1,	-1,	27,	-1,	20,	28,	6,	-1,	-1,	-1,	-1,	-1,	-1,	21,	-1,	-1,	-1,	-1,	26,	-1,	-1,	7,	-1,	-1,	16,	32,	-1,	14,	-1,	-1,	-1,	-1,	-1|
16,	-1,	-1,	-1,	-1,	6,	-1,	11,	-1,	-1,	-1,	-1,	5,	-1,	2,	-1,	-1,	26,	-1,	-1,	13,	20,	-1,	-1,	4,	19,	-1,	-1,	-1,	30,	-1,	24,	-1,	21,	-1,	-1|
36,	32,	-1,	2,	-1,	17,	-1,	-1,	-1,	-1,	-1,	-1,	-1,	-1,	-1,	25,	-1,	15,	-1,	-1,	-1,	7,	-1,	-1,	18,	-1,	-1,	-1,	-1,	-1,	29,	-1,	-1,	-1,	-1,	-1|
34,	8,	-1,	-1,	-1,	14,	30,	-1,	-1,	2,	-1,	-1,	29,	-1,	35,	-1,	-1,	-1,	-1,	-1,	-1,	27,	-1,	-1,	23,	33,	10,	6,	-1,	-1,	-1,	5,	-1,	-1,	-1,	-1|
-1,	24,	-1,	-1,	-1,	7,	-1,	-1,	-1,	-1,	-1,	17,	-1,	-1,	-1,	-1,	-1,	-1,	-1,	-1,	-1,	-1,	26,	-1,	20,	-1,	32,	-1,	-1,	-1,	34,	-1,	-1,	18,	11,	35|
20,	-1,	-1,	-1,	-1,	18,	29,	-1,	36,	-1,	-1,	-1,	8,	16,	-1,	33,	-1,	9,	-1,	-1,	25,	12,	-1,	-1,	21,	-1,	-1,	-1,	-1,	-1,	-1,	-1,	-1,	-1,	-1,	-1|
27,	-1,	26,	22,	12,	-1,	-1,	25,	-1,	-1,	21,	20,	-1,	-1,	-1,	-1,	-1,	24,	-1,	-1,	-1,	-1,	-1,	8,	29,	16,	-1,	-1,	7,	15,	-1,	-1,	1,	13,	-1,	-1|
28,	-1,	18,	-1,	-1,	33,	-1,	-1,	-1,	30,	27,	1,	-1,	3,	-1,	2,	23,	-1,	-1,	29,	-1,	-1,	-1,	-1,	-1,	36,	-1,	-1,	21,	-1,	-1,	-1,	-1,	11,	35,	10|
-1,	-1,	-1,	15,	-1,	-1,	-1,	31,	-1,	-1,	-1,	21,	-1,	22,	-1,	-1,	-1,	16,	-1,	35,	-1,	30,	7,	-1,	-1,	26,	-1,	-1,	-1,	-1,	-1,	-1,	-1,	19,	-1,	-1|
-1,	3,	-1,	34,	-1,	-1,	10,	-1,	20,	25,	16,	-1,	28,	13,	19,	9,	12,	-1,	-1,	-1,	-1,	-1,	-1,	-1,	-1,	-1,	-1,	32,	29,	-1,	-1,	23,	-1,	17,	-1,	-1|
-1,	29,	-1,	-1,	-1,	-1,	14,	-1,	23,	-1,	2,	19,	24,	-1,	-1,	35,	-1,	-1,	-1,	-1,	-1,	-1,	-1,	12,	-1,	-1,	-1,	-1,	-1,	8,	-1,	-1,	3,	15,	-1,	26|
17,	-1,	-1,	-1,	-1,	35,	28,	13,	-1,	-1,	-1,	-1,	26,	-1,	-1,	-1,	-1,	32,	6,	-1,	-1,	-1,	-1,	-1,	-1,	27,	1,	24,	16,	-1,	-1,	-1,	-1,	-1,	-1,	18|
26,	-1,	-1,	30,	22,	-1,	-1,	35,	-1,	-1,	-1,	-1,	34,	36,	-1,	-1,	17,	29,	-1,	10,	23,	-1,	-1,	28,	2,	-1,	-1,	-1,	31,	-1,	-1,	-1,	9,	-1,	16,	12|
-1,	-1,	14,	29,	-1,	-1,	-1,	17,	-1,	-1,	-1,	-1,	33,	-1,	31,	-1,	3,	-1,	-1,	-1,	-1,	-1,	-1,	9,	-1,	-1,	26,	1,	-1,	-1,	-1,	-1,	-1,	8,	13,	-1|
-1,	-1,	-1,	-1,	-1,	-1,	-1,	-1,	-1,	10,	-1,	5,	-1,	4,	24,	-1,	25,	28,	-1,	-1,	-1,	-1,	-1,	22,	-1,	32,	-1,	-1,	-1,	-1,	-1,	-1,	-1,	-1,	14,	30|
8,	-1,	-1,	27,	-1,	19,	33,	24,	-1,	13,	-1,	-1,	-1,	10,	-1,	11,	26,	2,	20,	-1,	-1,	-1,	-1,	-1,	-1,	18,	-1,	-1,	22,	-1,	-1,	-1,	-1,	-1,	3,	-1|
-1,	35,	-1,	33,	-1,	-1,	-1,	19,	-1,	8,	-1,	28,	-1,	27,	29,	34,	-1,	14,	32,	-1,	-1,	-1,	-1,	6,	24,	-1,	-1,	-1,	-1,	-1,	-1,	9,	-1,	16,	-1,	-1|
-1,	-1,	-1,	-1,	26,	-1,	-1,	23,	-1,	-1,	11,	-1,	-1,	-1,	9,	-1,	-1,	-1,	34,	33,	-1,	-1,	15,	-1,	-1,	-1,	-1,	19,	13,	20,	31,	-1,	-1,	27,	28,	-1|
3,	-1,	-1,	-1,	-1,	-1,	-1,	9,	26,	-1,	35,	-1,	19,	-1,	-1,	-1,	-1,	-1,	-1,	23,	-1,	-1,	-1,	24,	-1,	-1,	-1,	5,	-1,	-1,	-1,	29,	33,	-1,	12,	-1|];
